628	4419
680	4e3
686	3551
692	3057
698	2618
704	2563
735	2558
762	2199
768	1945
832	1800
844	1749
869	1730
881	1634
910	1508
947	1403
987	1402
1023	1392
1033	1337
1089	1241
1165	1230
1174	1150
1231	1089
1250	1084
1307	1013
1373	1002
1467	986
1474	972
1488	965
1579	935
1628	920
1694	898
1720	869
1835	832
2019	805
2124	768
2383	741
2877	735
3037	698
3486	692
3561	686
3925	634
4364	628
4419	622
5397	616
